c Sudoku solution
p cnf 729 0
124 0
133 0
145 0
197 0
282 0
312 0
325 0
343 0
369 0
386 0
434 0
465 0
478 0
491 0
531 0
564 0
617 0
758 0
789 0
832 0
841 0
953 0
855 0
949 0
744 0
663 0
651 0
371 0
179 0
188 0
394 0
254 0
357 0
338 0
268 0
161 0
152 0
246 0
116 0
981 0
995 0
898 0
293 0
275 0
456 0
559 0
699 0
239 0
227 0
211 0
721 0
792 0
962 0
596 0
715 0
773 0
635 0
626 0
585 0
684 0
672 0
648 0
928 0
914 0
518 0
577 0
483 0
419 0
422 0
523 0
447 0
542 0
813 0
829 0
874 0
887 0
976 0
866 0
767 0
736 0
937 0
